####################################################################### 
# 
# This file contains crystal structure data downloaded from the 
# Cambridge Structural Database (CSD) hosted by the Cambridge 
# Crystallographic Data Centre (CCDC).
# 
# Full information about CCDC data access policies and citation 
# guidelines are available at http://www.ccdc.cam.ac.uk/access/V1 
# 
# Audit and citation data items may have been added by the CCDC. 
# Please retain this information to preserve the provenance of 
# this file and to allow appropriate attribution of the data. 
# 
#######################################################################

data_FORMAM02
#This CIF has been generated from an entry in the Cambridge Structural Database
_database_code_depnum_ccdc_archive 'CCDC 1159372'
_database_code_CSD               FORMAM02
loop_
_citation_id
_citation_doi
_citation_year
1 10.1107/S0567740878003519 1978
_audit_creation_method           'Created from the CSD'
_audit_update_record             
;
2018-02-19 downloaded from the CCDC.
;
_database_code_NBS               512358
_chemical_formula_moiety         'C1 H3 N1 O1'
_chemical_name_systematic        Formamide
_chemical_absolute_configuration unk
_diffrn_ambient_temperature      90
_exptl_crystal_density_diffrn    1.33512
#These two values have been output from a single CSD field.
_refine_ls_R_factor_gt           0.033
_refine_ls_wR_factor_gt          0.033
_diffrn_radiation_probe          x-ray
_symmetry_cell_setting           monoclinic
_symmetry_space_group_name_H-M   'P 21/n'
_symmetry_Int_Tables_number      14
_space_group_name_Hall           '-P 2yn'
loop_
_symmetry_equiv_pos_site_id
_symmetry_equiv_pos_as_xyz
1 x,y,z
2 1/2-x,1/2+y,1/2-z
3 -x,-y,-z
4 1/2+x,1/2-y,1/2+z
_cell_length_a                   3.604(2)
_cell_length_b                   9.041(3)
_cell_length_c                   6.994(2)
_cell_angle_alpha                90
_cell_angle_beta                 100.50(5)
_cell_angle_gamma                90
_cell_volume                     224.075
_cell_formula_units_Z            4
loop_
_atom_site_label
_atom_site_type_symbol
_atom_site_fract_x
_atom_site_fract_y
_atom_site_fract_z
O1 O 0.47180 -0.06870 0.24860
N1 N 0.29960 0.15660 0.11900
C1 C 0.33580 0.05650 0.25800
H1 H 0.21100 0.24400 0.14000
H2 H 0.36700 0.13500 0.00600
H3 H 0.24200 0.08900 0.37800

#END
