####################################################################### 
# 
# This file contains crystal structure data downloaded from the 
# Cambridge Structural Database (CSD) hosted by the Cambridge 
# Crystallographic Data Centre (CCDC).
# 
# Full information about CCDC data access policies and citation 
# guidelines are available at http://www.ccdc.cam.ac.uk/access/V1 
# 
# Audit and citation data items may have been added by the CCDC. 
# Please retain this information to preserve the provenance of 
# this file and to allow appropriate attribution of the data. 
# 
#######################################################################

data_UREAXX02
_audit_block_doi                 10.5517/cc4f3d1
#This CIF has been generated from an entry in the Cambridge Structural Database
_database_code_depnum_ccdc_archive 'CCDC 131762'
_database_code_CSD               UREAXX02
loop_
_citation_id
_citation_doi
_citation_year
1 10.1107/S0108768198005746 1999
_audit_creation_method           'Created from the CSD'
_audit_update_record             
;
2018-02-19 downloaded from the CCDC.
;
_database_code_NBS               707614
_chemical_formula_moiety         'C1 H4 N2 O1'
_chemical_name_systematic        Urea
_chemical_absolute_configuration unk
_diffrn_special_details          'TDS-corrected X-ray diffraction data'
_diffrn_ambient_temperature      148
_exptl_crystal_density_diffrn    1.36
#These two values have been output from a single CSD field.
_refine_ls_R_factor_gt           0.005
_refine_ls_wR_factor_gt          0.005
_diffrn_radiation_probe          x-ray
_symmetry_cell_setting           tetragonal
_symmetry_space_group_name_H-M   'P -4 21 m'
_symmetry_Int_Tables_number      113
_space_group_name_Hall           'P -4 2ab'
loop_
_symmetry_equiv_pos_site_id
_symmetry_equiv_pos_as_xyz
1 x,y,z
2 y,-x,-z
3 1/2+x,1/2-y,-z
4 -x,-y,z
5 1/2-y,1/2-x,z
6 -y,x,-z
7 1/2-x,1/2+y,-z
8 1/2+y,1/2+x,z
_cell_length_a                   5.5890(5)
_cell_length_b                   5.5890(5)
_cell_length_c                   4.6947(4)
_cell_angle_alpha                90
_cell_angle_beta                 90
_cell_angle_gamma                90
_cell_volume                     146.648
_cell_formula_units_Z            2
_exptl_crystal_recrystallization_method water
loop_
_atom_site_label
_atom_site_type_symbol
_atom_site_fract_x
_atom_site_fract_y
_atom_site_fract_z
C1 C 0.0000 0.5000 0.3283(1)
O1 O 0.0000 0.5000 0.5963(1)
N1 N 0.1447(1) 0.6447(1) 0.1784(1)
H1 H 0.2552 0.7552 0.2845
H2 H 0.1428 0.6428 -0.0339
N1C N -0.1447(1) 0.3553(1) 0.1784(1)
H1C H -0.2552 0.2448 0.2845
H2C H -0.1428 0.3572 -0.0339

#END
